(set-info :smt-lib-version 2.6)
(set-logic QF_NIA)
(set-info :source |
Generated by: Cristina Borralleras, Daniel Larraz, Albert Oliveras, Enric Rodriguez-Carbonell, Albert Rubio
Generated on: 2017-04-27
Generator: VeryMax
Application: Termination proving
Target solver: barcelogic
|)
(set-info :license "https://creativecommons.org/licenses/by/4.0/")
(set-info :category "industrial")
(set-info :status unknown)
(declare-fun Nl2main_i1 () Int)
(declare-fun Nl2main_j1 () Int)
(declare-fun Nl2main_i2 () Int)
(declare-fun Nl2main_j2 () Int)
(declare-fun lam0n0 () Int)
(declare-fun lam0n1 () Int)
(declare-fun lam0n3 () Int)
(declare-fun lam0n4 () Int)
(declare-fun Nl2CT1 () Int)
(declare-fun Nl2CT2 () Int)
(declare-fun lam0n2 () Int)
(declare-fun lam1n0 () Int)
(declare-fun lam1n1 () Int)
(declare-fun lam1n3 () Int)
(declare-fun lam1n4 () Int)
(declare-fun lam1n2 () Int)
(declare-fun lam2n0 () Int)
(declare-fun lam2n1 () Int)
(declare-fun lam2n3 () Int)
(declare-fun lam2n4 () Int)
(declare-fun lam2n2 () Int)
(declare-fun lam3n0 () Int)
(declare-fun lam3n1 () Int)
(declare-fun lam3n2 () Int)
(declare-fun lam3n3 () Int)
(declare-fun lam3n4 () Int)
(declare-fun lam4n0 () Int)
(declare-fun lam4n1 () Int)
(declare-fun lam4n2 () Int)
(declare-fun lam4n3 () Int)
(declare-fun lam4n4 () Int)
(declare-fun lam5n0 () Int)
(declare-fun lam5n1 () Int)
(declare-fun lam5n2 () Int)
(declare-fun lam5n3 () Int)
(declare-fun lam6n0 () Int)
(declare-fun lam6n1 () Int)
(declare-fun lam6n2 () Int)
(declare-fun lam6n3 () Int)
(declare-fun lam7n0 () Int)
(declare-fun lam7n1 () Int)
(declare-fun lam7n2 () Int)
(declare-fun lam7n3 () Int)
(declare-fun lam8n0 () Int)
(declare-fun lam8n1 () Int)
(declare-fun lam8n2 () Int)
(declare-fun lam8n3 () Int)
(declare-fun lam9n0 () Int)
(declare-fun lam9n1 () Int)
(declare-fun lam9n2 () Int)
(declare-fun lam9n3 () Int)
(declare-fun lam10n0 () Int)
(declare-fun lam10n1 () Int)
(declare-fun lam10n2 () Int)
(declare-fun lam10n3 () Int)
(declare-fun lam11n0 () Int)
(declare-fun lam11n1 () Int)
(declare-fun lam11n2 () Int)
(declare-fun lam11n3 () Int)
(declare-fun lam12n0 () Int)
(declare-fun lam12n1 () Int)
(declare-fun lam12n2 () Int)
(declare-fun lam12n3 () Int)
(declare-fun main_i () Int)
(declare-fun main_j () Int)
(declare-fun undef3 () Int)
(declare-fun undef4 () Int)
(declare-fun lam16n0 () Int)
(declare-fun lam16n1 () Int)
(declare-fun lam16n3 () Int)
(declare-fun lam16n4 () Int)
(declare-fun RFN1_CT () Int)
(declare-fun RFN1_main_i () Int)
(declare-fun RFN1_main_j () Int)
(declare-fun lam16n2 () Int)
(declare-fun lam14n0 () Int)
(declare-fun lam14n1 () Int)
(declare-fun lam14n3 () Int)
(declare-fun lam14n4 () Int)
(declare-fun lam14n2 () Int)
(declare-fun lam15n0 () Int)
(declare-fun lam15n1 () Int)
(declare-fun lam15n3 () Int)
(declare-fun lam15n4 () Int)
(declare-fun lam15n2 () Int)
(declare-fun lam13n0 () Int)
(declare-fun lam13n1 () Int)
(declare-fun lam13n3 () Int)
(declare-fun lam13n4 () Int)
(declare-fun lam13n2 () Int)
(assert ( and ( <= ( - 1 ) Nl2main_i1 ) ( <= Nl2main_i1 1 ) ( <= ( - 1 ) Nl2main_j1 ) ( <= Nl2main_j1 1 ) ( <= ( - 1 ) Nl2main_i2 ) ( <= Nl2main_i2 1 ) ( <= ( - 1 ) Nl2main_j2 ) ( <= Nl2main_j2 1 ) ))
(assert ( or ( and ( >= lam0n0 0 ) ( >= lam0n1 0 ) ( >= lam0n3 0 ) ( >= lam0n4 0 ) ( > ( + ( * 1 lam0n0 ) ( * 1 lam0n1 ) ( * Nl2CT1 lam0n3 ) ( * Nl2CT2 lam0n4 ) ( - 1 ) ) 0 ) ( = ( + ( * 1 lam0n0 ) ( * 1 lam0n2 ) ( * Nl2main_i1 lam0n3 ) ( * Nl2main_i2 lam0n4 ) ) 0 ) ( = ( + ( * ( - 1 ) lam0n0 ) ( * ( - 1 ) lam0n1 ) ( * 1 lam0n2 ) ( * Nl2main_j1 lam0n3 ) ( * Nl2main_j2 lam0n4 ) ) 0 ) ) ( and ( >= lam1n0 0 ) ( >= lam1n1 0 ) ( >= lam1n3 0 ) ( >= lam1n4 0 ) ( > ( + ( * 1 lam1n0 ) ( * 1 lam1n1 ) ( * Nl2CT1 lam1n3 ) ( * Nl2CT2 lam1n4 ) ( - 1 ( + ( + Nl2CT1 ( * Nl2main_i1 ( - 1 ) ) ) ( * Nl2main_j1 1 ) ) ) ) 0 ) ( = ( + ( * 1 lam1n0 ) ( * 1 lam1n2 ) ( * Nl2main_i1 lam1n3 ) ( * Nl2main_i2 lam1n4 ) ( - ( + 0 ( * Nl2main_i1 1 ) ) ) ) 0 ) ( = ( + ( * ( - 1 ) lam1n0 ) ( * ( - 1 ) lam1n1 ) ( * 1 lam1n2 ) ( * Nl2main_j1 lam1n3 ) ( * Nl2main_j2 lam1n4 ) ( - ( + 0 ( * Nl2main_j1 1 ) ) ) ) 0 ) ) ))
(assert ( or ( and ( >= lam0n0 0 ) ( >= lam0n1 0 ) ( >= lam0n3 0 ) ( >= lam0n4 0 ) ( > ( + ( * 1 lam0n0 ) ( * 1 lam0n1 ) ( * Nl2CT1 lam0n3 ) ( * Nl2CT2 lam0n4 ) ( - 1 ) ) 0 ) ( = ( + ( * 1 lam0n0 ) ( * 1 lam0n2 ) ( * Nl2main_i1 lam0n3 ) ( * Nl2main_i2 lam0n4 ) ) 0 ) ( = ( + ( * ( - 1 ) lam0n0 ) ( * ( - 1 ) lam0n1 ) ( * 1 lam0n2 ) ( * Nl2main_j1 lam0n3 ) ( * Nl2main_j2 lam0n4 ) ) 0 ) ) ( and ( >= lam2n0 0 ) ( >= lam2n1 0 ) ( >= lam2n3 0 ) ( >= lam2n4 0 ) ( > ( + ( * 1 lam2n0 ) ( * 1 lam2n1 ) ( * Nl2CT1 lam2n3 ) ( * Nl2CT2 lam2n4 ) ( - 1 ( + ( + Nl2CT2 ( * Nl2main_i2 ( - 1 ) ) ) ( * Nl2main_j2 1 ) ) ) ) 0 ) ( = ( + ( * 1 lam2n0 ) ( * 1 lam2n2 ) ( * Nl2main_i1 lam2n3 ) ( * Nl2main_i2 lam2n4 ) ( - ( + 0 ( * Nl2main_i2 1 ) ) ) ) 0 ) ( = ( + ( * ( - 1 ) lam2n0 ) ( * ( - 1 ) lam2n1 ) ( * 1 lam2n2 ) ( * Nl2main_j1 lam2n3 ) ( * Nl2main_j2 lam2n4 ) ( - ( + 0 ( * Nl2main_j2 1 ) ) ) ) 0 ) ) ))
(assert ( or ( and ( not ( <= ( + ( * ( - 1 ) main_i ) main_j ) 0 ) ) ( not ( <= main_j 0 ) ) ( = ( + main_i main_j ) 0 ) ( = ( + main_i ( * ( - 1 ) undef3 ) ) 0 ) ( = ( + main_j ( * ( - 1 ) undef4 ) ) 0 ) ( <= ( + Nl2CT1 ( * ( + 0 Nl2main_i1 ) main_i ) ( * ( + 0 Nl2main_j1 ) main_j ) ) 0 ) ( <= ( + Nl2CT2 ( * ( + 0 Nl2main_i2 ) main_i ) ( * ( + 0 Nl2main_j2 ) main_j ) ) 0 ) ( <= ( + ( * ( - 1 ) main_i ) ( * ( - 1 ) main_j ) ) 0 ) ( <= ( + main_i main_j ) 0 ) ) ( and ( not ( <= ( + ( * ( - 1 ) main_i ) ( * ( - 1 ) main_j ) ) 0 ) ) ( not ( <= ( + ( * ( - 1 ) main_i ) main_j ) 0 ) ) ( = ( + main_i ( * ( - 1 ) undef3 ) ) 0 ) ( = ( + main_j ( * ( - 1 ) undef4 ) ) 0 ) ( <= ( + Nl2CT1 ( * ( + 0 Nl2main_i1 ) main_i ) ( * ( + 0 Nl2main_j1 ) main_j ) ) 0 ) ( <= ( + Nl2CT2 ( * ( + 0 Nl2main_i2 ) main_i ) ( * ( + 0 Nl2main_j2 ) main_j ) ) 0 ) ( <= ( + ( * ( - 1 ) main_i ) ( * ( - 1 ) main_j ) ) 0 ) ( <= ( + main_i main_j ) 0 ) ) ( and ( not ( <= ( + ( * ( - 1 ) main_i ) main_j ) 0 ) ) ( not ( <= ( + main_i main_j ) 0 ) ) ( = ( + main_i ( * ( - 1 ) undef3 ) ) 0 ) ( = ( + main_j ( * ( - 1 ) undef4 ) ) 0 ) ( <= ( + Nl2CT1 ( * ( + 0 Nl2main_i1 ) main_i ) ( * ( + 0 Nl2main_j1 ) main_j ) ) 0 ) ( <= ( + Nl2CT2 ( * ( + 0 Nl2main_i2 ) main_i ) ( * ( + 0 Nl2main_j2 ) main_j ) ) 0 ) ( <= ( + ( * ( - 1 ) main_i ) ( * ( - 1 ) main_j ) ) 0 ) ( <= ( + main_i main_j ) 0 ) ) ( and ( not ( <= ( + ( * ( - 1 ) main_i ) ( * ( - 1 ) main_j ) ) 0 ) ) ( not ( <= ( + main_i ( * ( - 1 ) main_j ) ) 0 ) ) ( = ( + main_i ( * ( - 1 ) undef3 ) ) 0 ) ( = ( + main_j ( * ( - 1 ) undef4 ) ) 0 ) ( <= ( + Nl2CT1 ( * ( + 0 Nl2main_i1 ) main_i ) ( * ( + 0 Nl2main_j1 ) main_j ) ) 0 ) ( <= ( + Nl2CT2 ( * ( + 0 Nl2main_i2 ) main_i ) ( * ( + 0 Nl2main_j2 ) main_j ) ) 0 ) ( <= ( + ( * ( - 1 ) main_i ) ( * ( - 1 ) main_j ) ) 0 ) ( <= ( + main_i main_j ) 0 ) ) ( and ( not ( <= ( + main_i ( * ( - 1 ) main_j ) ) 0 ) ) ( not ( <= ( + main_i main_j ) 0 ) ) ( = ( + main_i ( * ( - 1 ) undef3 ) ) 0 ) ( = ( + main_j ( * ( - 1 ) undef4 ) ) 0 ) ( <= ( + Nl2CT1 ( * ( + 0 Nl2main_i1 ) main_i ) ( * ( + 0 Nl2main_j1 ) main_j ) ) 0 ) ( <= ( + Nl2CT2 ( * ( + 0 Nl2main_i2 ) main_i ) ( * ( + 0 Nl2main_j2 ) main_j ) ) 0 ) ( <= ( + ( * ( - 1 ) main_i ) ( * ( - 1 ) main_j ) ) 0 ) ( <= ( + main_i main_j ) 0 ) ) ))
(assert ( or ( and ( and ( >= lam16n0 0 ) ( >= lam16n1 0 ) ( >= lam16n3 0 ) ( >= lam16n4 0 ) ( > ( + ( * 1 lam16n0 ) ( * 1 lam16n1 ) ( * Nl2CT1 lam16n3 ) ( * Nl2CT2 lam16n4 ) ( - 1 ( - ( + ( + RFN1_CT ( * RFN1_main_i ( - 1 ) ) ) ( * RFN1_main_j 1 ) ) RFN1_CT ) ) ) 0 ) ( = ( + ( * 1 lam16n0 ) ( * 1 lam16n2 ) ( * Nl2main_i1 lam16n3 ) ( * Nl2main_i2 lam16n4 ) ( - ( - ( + 0 ( * RFN1_main_i 1 ) ) RFN1_main_i ) ) ) 0 ) ( = ( + ( * ( - 1 ) lam16n0 ) ( * ( - 1 ) lam16n1 ) ( * 1 lam16n2 ) ( * Nl2main_j1 lam16n3 ) ( * Nl2main_j2 lam16n4 ) ( - ( - ( + 0 ( * RFN1_main_j 1 ) ) RFN1_main_j ) ) ) 0 ) ) ( and ( and ( >= lam14n0 0 ) ( >= lam14n1 0 ) ( >= lam14n3 0 ) ( >= lam14n4 0 ) ( > ( + ( * 1 lam14n0 ) ( * 1 lam14n1 ) ( * Nl2CT1 lam14n3 ) ( * Nl2CT2 lam14n4 ) ( - 1 ( - RFN1_CT ) ) ) 0 ) ( = ( + ( * 1 lam14n0 ) ( * 1 lam14n2 ) ( * Nl2main_i1 lam14n3 ) ( * Nl2main_i2 lam14n4 ) ( - ( - RFN1_main_i ) ) ) 0 ) ( = ( + ( * ( - 1 ) lam14n0 ) ( * ( - 1 ) lam14n1 ) ( * 1 lam14n2 ) ( * Nl2main_j1 lam14n3 ) ( * Nl2main_j2 lam14n4 ) ( - ( - RFN1_main_j ) ) ) 0 ) ) ( and ( >= lam15n0 0 ) ( >= lam15n1 0 ) ( >= lam15n3 0 ) ( >= lam15n4 0 ) ( > ( + ( * 1 lam15n0 ) ( * 1 lam15n1 ) ( * Nl2CT1 lam15n3 ) ( * Nl2CT2 lam15n4 ) ( - 1 ( + ( - ( + ( + RFN1_CT ( * RFN1_main_i ( - 1 ) ) ) ( * RFN1_main_j 1 ) ) RFN1_CT ) 1 ) ) ) 0 ) ( = ( + ( * 1 lam15n0 ) ( * 1 lam15n2 ) ( * Nl2main_i1 lam15n3 ) ( * Nl2main_i2 lam15n4 ) ( - ( - ( + 0 ( * RFN1_main_i 1 ) ) RFN1_main_i ) ) ) 0 ) ( = ( + ( * ( - 1 ) lam15n0 ) ( * ( - 1 ) lam15n1 ) ( * 1 lam15n2 ) ( * Nl2main_j1 lam15n3 ) ( * Nl2main_j2 lam15n4 ) ( - ( - ( + 0 ( * RFN1_main_j 1 ) ) RFN1_main_j ) ) ) 0 ) ) ) ) ( and ( >= lam13n0 0 ) ( >= lam13n1 0 ) ( >= lam13n3 0 ) ( >= lam13n4 0 ) ( > ( + ( * 1 lam13n0 ) ( * 1 lam13n1 ) ( * Nl2CT1 lam13n3 ) ( * Nl2CT2 lam13n4 ) ( - 1 ) ) 0 ) ( = ( + ( * 1 lam13n0 ) ( * 1 lam13n2 ) ( * Nl2main_i1 lam13n3 ) ( * Nl2main_i2 lam13n4 ) ) 0 ) ( = ( + ( * ( - 1 ) lam13n0 ) ( * ( - 1 ) lam13n1 ) ( * 1 lam13n2 ) ( * Nl2main_j1 lam13n3 ) ( * Nl2main_j2 lam13n4 ) ) 0 ) ) ))
(check-sat)
(exit)
